(set-info :smt-lib-version 2.6)
(set-logic QF_UFLRA)
(set-info :source |
MathSat group

|)
(set-info :category "random")
(set-info :status sat)
(declare-fun x0 () Real)
(declare-fun x1 () Real)
(declare-fun x2 () Real)
(declare-fun x3 () Real)
(declare-fun x4 () Real)
(declare-fun x5 () Real)
(declare-fun x6 () Real)
(declare-fun x7 () Real)
(declare-fun x8 () Real)
(declare-fun x9 () Real)
(declare-fun x10 () Real)
(declare-fun x11 () Real)
(declare-fun x12 () Real)
(declare-fun x13 () Real)
(declare-fun x14 () Real)
(declare-fun x15 () Real)
(declare-fun x16 () Real)
(declare-fun x17 () Real)
(declare-fun x18 () Real)
(declare-fun x19 () Real)
(declare-fun x20 () Real)
(declare-fun x21 () Real)
(declare-fun x22 () Real)
(declare-fun x23 () Real)
(declare-fun x24 () Real)
(declare-fun x25 () Real)
(declare-fun x26 () Real)
(declare-fun x27 () Real)
(declare-fun x28 () Real)
(declare-fun x29 () Real)
(declare-fun x30 () Real)
(declare-fun x31 () Real)
(declare-fun x32 () Real)
(declare-fun x33 () Real)
(declare-fun x34 () Real)
(declare-fun x35 () Real)
(declare-fun x36 () Real)
(declare-fun x37 () Real)
(declare-fun x38 () Real)
(declare-fun x39 () Real)
(declare-fun x40 () Real)
(declare-fun x41 () Real)
(declare-fun x42 () Real)
(declare-fun x43 () Real)
(declare-fun x44 () Real)
(declare-fun x45 () Real)
(declare-fun x46 () Real)
(declare-fun x47 () Real)
(declare-fun x48 () Real)
(declare-fun x49 () Real)
(declare-fun f0_1 (Real) Real)
(declare-fun f0_2 (Real Real) Real)
(declare-fun f0_3 (Real Real Real) Real)
(declare-fun f0_4 (Real Real Real Real) Real)
(declare-fun P0 () Bool)
(declare-fun P1 () Bool)
(declare-fun P2 () Bool)
(declare-fun P3 () Bool)
(declare-fun P4 () Bool)
(declare-fun P5 () Bool)
(declare-fun P6 () Bool)
(declare-fun P7 () Bool)
(declare-fun P8 () Bool)
(declare-fun P9 () Bool)
(declare-fun P10 () Bool)
(declare-fun P11 () Bool)
(declare-fun P12 () Bool)
(declare-fun P13 () Bool)
(declare-fun P14 () Bool)
(declare-fun P15 () Bool)
(declare-fun P16 () Bool)
(declare-fun P17 () Bool)
(declare-fun P18 () Bool)
(declare-fun P19 () Bool)
(declare-fun P20 () Bool)
(declare-fun P21 () Bool)
(declare-fun P22 () Bool)
(declare-fun P23 () Bool)
(declare-fun P24 () Bool)
(declare-fun P25 () Bool)
(declare-fun P26 () Bool)
(declare-fun P27 () Bool)
(declare-fun P28 () Bool)
(declare-fun P29 () Bool)
(declare-fun P30 () Bool)
(declare-fun P31 () Bool)
(declare-fun P32 () Bool)
(declare-fun P33 () Bool)
(declare-fun P34 () Bool)
(declare-fun P35 () Bool)
(declare-fun P36 () Bool)
(declare-fun P37 () Bool)
(declare-fun P38 () Bool)
(declare-fun P39 () Bool)
(declare-fun P40 () Bool)
(declare-fun P41 () Bool)
(declare-fun P42 () Bool)
(declare-fun P43 () Bool)
(declare-fun P44 () Bool)
(declare-fun P45 () Bool)
(declare-fun P46 () Bool)
(declare-fun P47 () Bool)
(declare-fun P48 () Bool)
(declare-fun P49 () Bool)
(assert (let ((?v_157 (<= (- (- (* 4 x21) (* 5 x18)) (* 10 x2)) 20)) (?v_102 (= (- (- (* 15 x16) (* 7 x35)) (* 20 x17)) 27)) (?v_51 (* 18 x32)) (?v_58 (<= (- (+ (* 12 x33) (* 14 x21)) (* 7 x3)) 13)) (?v_107 (* 23 x34)) (?v_76 (<= (- (- (* 2 x13) (* 10 x49)) (* 4 x38)) 15)) (?v_40 (< (- (- (* 15 x5) (* 19 x5)) (* 19 x11)) 8)) (?v_12 (* 21 x20)) (?v_38 (distinct (+ (- (* 2 x9) (* 16 x38)) (* 22 x10)) 21)) (?v_101 (* 2 x17)) (?v_22 (* 10 x46))) (let ((?v_52 (<= (+ (- (* 10 x43) ?v_22) ?v_12) 3)) (?v_25 (* 13 x26)) (?v_41 (distinct (+ (- (* 3 x38) (* 4 x18)) ?v_22) 24)) (?v_29 (f0_1 x16))) (let ((?v_118 (= ?v_29 (f0_1 x42))) (?v_252 (distinct (f0_2 x37 x16) x13)) (?v_4 (f0_1 x41))) (let ((?v_123 (distinct (f0_2 x11 x40) ?v_4)) (?v_168 (f0_1 x8))) (let ((?v_90 (= ?v_168 (f0_2 x7 x12))) (?v_15 (= (f0_2 x0 x18) x6)) (?v_122 (= (f0_2 x2 x12) (f0_1 x44))) (?v_108 (distinct ?v_29 (f0_2 x9 x36))) (?v_234 (distinct (f0_2 x5 x17) x29)) (?v_251 (= x41 x49)) (?v_43 (f0_1 x13))) (let ((?v_133 (distinct ?v_43 (f0_1 x9))) (?v_64 (distinct (f0_1 x18) (f0_2 x6 x5))) (?v_132 (distinct (f0_1 x6) x15)) (?v_27 (f0_1 x24))) (let ((?v_67 (distinct ?v_27 (f0_2 x40 x35))) (?v_18 (= (f0_1 x30) (f0_2 x11 x28))) (?v_114 (distinct x6 x8)) (?v_175 (distinct x25 (f0_2 x24 x15))) (?v_0 (f0_1 x3))) (let ((?v_32 (= ?v_0 x33)) (?v_167 (f0_1 x37))) (let ((?v_235 (distinct ?v_167 ?v_168)) (?v_31 (distinct x26 (f0_2 x10 x16))) (?v_104 (distinct (f0_1 x21) x11)) (?v_63 (= (f0_2 x41 x12) (f0_1 x22))) (?v_183 (distinct ?v_168 x38)) (?v_97 (= x42 (f0_1 x47))) (?v_85 (distinct ?v_43 (f0_1 x19))) (?v_199 (distinct x23 x25)) (?v_3 (distinct x32 (f0_1 x0))) (?v_49 (distinct (f0_2 x5 x48) (f0_2 x48 x25))) (?v_153 (= (f0_1 x15) (f0_2 x27 x13))) (?v_53 (distinct (f0_2 x46 x28) (f0_2 x17 x29))) (?v_103 (distinct ?v_0 x33)) (?v_187 (distinct ?v_29 (f0_1 x39))) (?v_68 (distinct ?v_27 (f0_2 x29 x35))) (?v_222 (= (f0_2 x26 x27) (f0_2 x47 x17))) (?v_70 (distinct x12 ?v_4)) (?v_136 (distinct (f0_1 x29) ?v_167)) (?v_217 (= x21 (f0_2 x17 x44))) (?v_180 (distinct x36 (f0_1 x36))) (?v_71 (= (f0_2 x24 x5) ?v_4)) (?v_26 (f0_2 x8 x8))) (let ((?v_158 (= ?v_26 (f0_2 x7 x7))) (?v_256 (= (f0_1 x48) (f0_2 x21 x19))) (?v_54 (distinct x7 x5)) (?v_47 (= x10 (f0_2 x6 x13))) (?v_162 (distinct (f0_2 x38 x46) x30)) (?v_140 (= (f0_2 x42 x42) (f0_2 x13 x11))) (?v_105 (distinct (f0_2 x20 x26) (f0_2 x40 x44))) (?v_110 (distinct (f0_2 x38 x3) ?v_27)) (?v_46 (distinct (f0_2 x39 x2) ?v_26)) (?v_219 (distinct (f0_1 x12) (f0_2 x26 x1))) (?v_96 (= ?v_29 (f0_2 x15 x24))) (?v_24 (distinct (f0_1 x20) (f0_1 x26))) (?v_173 (not P28)) (?v_169 (not P2)) (?v_65 (not P25)) (?v_1 (not ?v_32)) (?v_81 (not P26)) (?v_151 (not ?v_103)) (?v_190 (not ?v_38)) (?v_143 (not ?v_251)) (?v_73 (not ?v_70)) (?v_2 (not ?v_3)) (?v_86 (not ?v_136)) (?v_205 (not P47)) (?v_9 (not P20)) (?v_165 (not ?v_53)) (?v_55 (not P41)) (?v_39 (not P31)) (?v_176 (not ?v_133)) (?v_200 (not ?v_67)) (?v_150 (not ?v_180)) (?v_60 (not P32)) (?v_109 (not P30)) (?v_186 (not P38)) (?v_44 (not ?v_52)) (?v_211 (not ?v_234)) (?v_94 (not P15)) (?v_35 (not P39))) (let ((?v_17 (not ?v_105)) (?v_30 (not P37)) (?v_100 (not P23)) (?v_95 (not P45)) (?v_116 (not P3)) (?v_36 (not ?v_15)) (?v_98 (not ?v_132)) (?v_34 (not ?v_63)) (?v_106 (not ?v_104)) (?v_120 (not P6)) (?v_42 (not ?v_47)) (?v_121 (not ?v_162)) (?v_80 (not P9)) (?v_57 (not ?v_256)) (?v_134 (not ?v_24)) (?v_37 (not P8)) (?v_155 (not ?v_68)) (?v_127 (not ?v_49)) (?v_148 (not ?v_108)) (?v_45 (not P18)) (?v_66 (not P22)) (?v_69 (not P27)) (?v_144 (not ?v_76)) (?v_83 (not P13)) (?v_111 (not ?v_114)) (?v_164 (not P11)) (?v_99 (not P0)) (?v_84 (not ?v_41)) (?v_128 (not P17)) (?v_182 (not P12)) (?v_78 (not P35)) (?v_221 (not ?v_85)) (?v_48 (not ?v_58)) (?v_92 (not P48)) (?v_228 (not P42)) (?v_112 (not ?v_54)) (?v_88 (not P33)) (?v_246 (not ?v_90)) (?v_87 (not ?v_122)) (?v_178 (not P14)) (?v_119 (not P24)) (?v_214 (not ?v_71)) (?v_198 (not ?v_110)) (?v_203 (not P7)) (?v_237 (not ?v_97)) (?v_163 (not ?v_102)) (?v_142 (not P40)) (?v_248 (not ?v_118)) (?v_201 (not ?v_64)) (?v_257 (not P44)) (?v_240 (not ?v_175)) (?v_242 (not ?v_217)) (?v_216 (not P49)) (?v_149 (not P36)) (?v_154 (not ?v_96)) (?v_166 (not P16)) (?v_207 (not ?v_153)) (?v_243 (not ?v_157)) (?v_259 (not P46)) (?v_204 (not P43)) (?v_196 (not P1)) (?v_189 (not ?v_123)) (?v_208 (not P4)) (?v_213 (not ?v_183)) (?v_220 (not ?v_252)) (?v_223 (not ?v_222)) (?v_193 (not ?v_140)) (?v_212 (not P29)) (?v_233 (not ?v_219)) (?v_236 (not ?v_187)) (?v_241 (not P34)) (?v_230 (not ?v_199)) (?v_225 (not ?v_40)) (?v_239 (not P5)) (?v_218 (not P10)) (?v_247 (not ?v_235)) (?v_255 (not ?v_31)) (?v_258 (not ?v_18)) (?v_261 (not P21)) (?v_260 (not ?v_158)) (?v_23 (<= (- (- (* 25 x47) 0) x25) 14))) (let ((?v_8 (not ?v_23)) (?v_179 (<= (+ (- 0 (* 7 x30)) (* 26 x46)) 23))) (let ((?v_135 (not ?v_179)) (?v_21 (= (+ (* 24 x14) (* 27 x10) (* 19 x39)) 7)) (?v_117 (<= (+ x19 (* 27 x5)) 7))) (let ((?v_249 (not ?v_117)) (?v_91 (<= (+ (* 22 x25) (* 19 x10) (* 26 x17)) 14))) (let ((?v_227 (not ?v_91)) (?v_141 (< (+ (- (* (- 2) x7) (* 16 x11)) (* 6 x19)) 20))) (let ((?v_191 (not ?v_141)) (?v_161 (<= (- (- (* (- 27) x46) (* 3 x28)) (* 12 x41)) (- 24))) (?v_13 (= (+ (* 27 x7) (* 27 x48)) (- 29)))) (let ((?v_177 (not ?v_13)) (?v_5 (< (- (- (* (- 8) x31) (* 3 x26)) ?v_25) 4)) (?v_28 (< (- (+ (* (- 25) x43) (* 2 x45)) (* 12 x35)) 14))) (let ((?v_6 (not ?v_28)) (?v_124 (distinct (- (- (* (- 19) x31) (* 25 x14)) (* 25 x31)) (- 24)))) (let ((?v_215 (not ?v_124)) (?v_11 (< (- (- (* (- 5) x37) x27) (* 15 x43)) (- 16))) (?v_72 (= (- (- (* (- 26) x42) (* 15 x30)) (* 13 x31)) (- 11))) (?v_138 (<= (+ (* 7 x38) (* 10 x45) (* 21 x37)) (- 8)))) (let ((?v_188 (not ?v_138)) (?v_59 (<= (+ ?v_51 (* 11 x14)) (- 27))) (?v_10 (<= (- (+ (* (- 8) x23) (* 18 x33)) (* 3 x1)) 11)) (?v_171 (distinct (- (- (* (- 8) x19) ?v_12) (* 23 x49)) 20))) (let ((?v_7 (not ?v_171)) (?v_152 (not ?v_10)) (?v_232 (not ?v_11)) (?v_20 (<= (- (+ (* (- 6) x24) (* 7 x19)) (* 18 x5)) (- 15)))) (let ((?v_16 (not ?v_20)) (?v_19 (< (- (+ (* (- 12) x48) (* 27 x41)) 0) (- 12))) (?v_14 (< (+ (* 23 x8) (* 13 x24) (* 16 x14)) (- 6))) (?v_192 (<= (+ (- (* (- 11) x32) (* 25 x48)) (* 15 x20)) 10))) (let ((?v_160 (not ?v_192)) (?v_184 (< (+ (* (- 14) x16) (* 23 x13) (* 26 x45)) (- 15)))) (let ((?v_194 (not ?v_184)) (?v_62 (<= (- (+ (* (- 21) x7) (* 2 x18)) (* 7 x45)) (- 14))) (?v_156 (< (+ (- (* 4 x46) (* 11 x44)) ?v_25) (- 15)))) (let ((?v_33 (not ?v_156)) (?v_113 (< (+ (* (- 21) x30) (* 21 x42)) (- 7)))) (let ((?v_93 (not ?v_113)) (?v_77 (< (+ (- (* (- 10) x27) (* 9 x11)) (* 26 x37)) 21))) (let ((?v_125 (not ?v_77)) (?v_130 (not ?v_5)) (?v_226 (not ?v_19)) (?v_172 (< (+ (* (- 8) x29) (* 17 x45) ?v_101) 10))) (let ((?v_50 (not ?v_172)) (?v_56 (<= (+ (- (* (- 9) x16) ?v_51) (* 3 x20)) (- 17)))) (let ((?v_61 (not ?v_56)) (?v_74 (< (- (- (* 21 x5) (* 7 x18)) (* 13 x49)) (- 6)))) (let ((?v_82 (not ?v_74)) (?v_126 (<= (+ (- 0 (* 4 x16)) (* 4 x4)) (- 20)))) (let ((?v_210 (not ?v_126)) (?v_89 (not ?v_62)) (?v_75 (<= (- (- (* 20 x6) (* 12 x11)) 0) (- 25)))) (let ((?v_79 (not ?v_75)) (?v_174 (< (- (- (* 9 x45) (* 26 x31)) (* 27 x17)) (- 7)))) (let ((?v_115 (not ?v_174)) (?v_131 (<= (- (- (* (- 5) x38) (* 12 x14)) (* 20 x36)) 23)) (?v_250 (not ?v_72)) (?v_159 (< (+ (* (- 4) x13) ?v_101 ?v_107) (- 26))) (?v_129 (= (+ (- (* (- 4) x0) ?v_107) (* 6 x33)) (- 3))) (?v_137 (< (+ (- x24 (* 25 x24)) (* 18 x41)) (- 16)))) (let ((?v_147 (not ?v_137)) (?v_253 (not ?v_131)) (?v_209 (= (- (* 16 x5) (* 4 x43)) (- 23)))) (let ((?v_145 (not ?v_209)) (?v_139 (<= (- (+ (* (- 12) x37) (* 14 x31)) (* 11 x48)) 19))) (let ((?v_224 (not ?v_139)) (?v_181 (not ?v_129)) (?v_146 (not ?v_14)) (?v_195 (< (- (- 0 (* 13 x39)) (* 7 x46)) (- 26)))) (let ((?v_238 (not ?v_195)) (?v_206 (< (- (- x34 (* 23 x43)) (* 21 x2)) (- 23)))) (let ((?v_170 (not ?v_206)) (?v_254 (not ?v_159)) (?v_244 (not ?v_161)) (?v_197 (not ?v_59)) (?v_185 (<= (+ (- (* (- 9) x26) (* 5 x42)) (* 2 x43)) 2)) (?v_229 (< (- (+ (* (- 27) x5) (* 18 x20)) 0) 26))) (let ((?v_245 (not ?v_229)) (?v_202 (not ?v_185)) (?v_231 (or ?v_206 ?v_170))) (and (and (and (and (and (and (and (and (and (and (and (and (and (and (and (and (and (and (and (and (and (and (and (and (and (and (and (and (and (and (and (and (and (and (and (and (and (and (and (and (and (and (and (and (and (and (and (and (and (and (and (and (and (and (and (and (and (and (and (and (and (and (and (and (and (and (and (and (and (and (and (and (and (and (and (and (and (and (and (and (and (and (and (and (and (and (and (and (and (and (and (and (and (and (and (and (and (and (and (and (and (and (and (and (and (and (and (and (and (and (and (and (and (and (and (and (and (and (and (and (and (and (and (and (and (and (and (and (and (and (and (and (and (and (and (and (and (and (and (and (and (and (and (and (and (and (and (and (and (and (and (and (and (and (and (and (and (and (and (and (and (and (and (and (and (and (and (and (and (and (and (and (and (and (and (and (and (and (and (and (and (and (and (and (and (and (and (and (and (and (and (and (and (and (and (and (and (and (and (and (and (and (and (and (and (and (and (and (and (and (and (and (and (and (and (and (and (and (and (and (and (and (and (and (and (and (and (and (and (and (and (and (and (and (and (and (and (and (and (and (and (and (and (and (and (and (and (and (and (and (and (and (and (and (and (and (and (and (and (and (and (and (and (and (and (and (and (and (and (and (and (and (and (and (and (and (and (and (and (and (and (and (and (and (and (and (and (and (and (and (and (and (and (and (and (and (and (and (and (and (and (and (and (and (and (and (and (and (and (and (and (and (and (and (and (and (and (and (and (and (and (and (and (and (and (and (and (and (and (and (and (and (and (and (and (and (and (and (and (and (and (and (and (and (and (and (and (and (and (and (and (and (and (and (and (and (and (and (and (and (and (and (and (and (and (and (and (and (and (and (and (and (and (and (and (and (and (and (and (and (and (and (and (and (and (and (and (and (and (and (and (and (and (and (and (and (and (and (and (and (and (and (and (and (and (and (and (and (and (and (and (and (and (and (and (and (and (and (and (and (and (and (and (and (and (and (and (and (and (and (and (and (and (and (and (and (and (and (and (and (and (and (and (and (and (and (and (and (and (and (and (and (and (and (and (and (and (and (and (and (and (and (and (and (and (and (and (and (and (and (and (and (and (and (and (and (and (and (and (and (and (and (and (and (and (and (and (and (and (and (and (and (and (and (and (and (and (and (and (and (and (and (and (and (and (and (and (and (and (and (and (and (and (and (and (and (and (and (and (and (and (and (and (and (and (and (and (and (and (and (and (and (and (and (and (and (and (and (and (and (and (and (and (and (and (and (and (and (and (and (and (and (and (and (and (and (and (and (and (and (and (and (and (and (and (and (and (and (and (and (and (and (and (and (and (and (and (and (and (and (and (and (and (and (and (and (and (and (and (and (and (and (and (and (and (and (and (and (and (or (or ?v_8 ?v_31) ?v_191) (or (or ?v_161 ?v_173) ?v_169)) (or (or ?v_65 ?v_15) P16)) (or (or ?v_1 ?v_177) ?v_5)) (or (or ?v_81 ?v_6) ?v_215)) (or (or ?v_151 ?v_190) ?v_11)) (or (or ?v_158 ?v_72) ?v_143)) (or (or ?v_73 ?v_1) ?v_2)) (or (or ?v_188 P35) ?v_2)) (or (or ?v_3 ?v_71) ?v_86)) (or (or P48 P21) ?v_5)) (or (or P15 ?v_59) ?v_205)) (or (or ?v_40 P23) ?v_10)) (or (or ?v_6 ?v_135) ?v_7)) (or (or ?v_9 ?v_18) ?v_7)) (or (or P5 ?v_24) P33)) (or (or ?v_165 ?v_55) ?v_8)) (or (or ?v_39 ?v_9) ?v_176)) (or (or ?v_200 ?v_118) ?v_150)) (or (or ?v_60 P9) P0)) (or (or ?v_152 ?v_109) ?v_232)) (or (or ?v_64 ?v_186) P10)) (or (or ?v_16 P21) ?v_44)) (or (or ?v_211 ?v_19) ?v_14)) (or (or ?v_21 ?v_94) ?v_13)) (or (or ?v_35 ?v_17) ?v_30)) (or (or ?v_14 ?v_100) ?v_54)) (or (or ?v_95 P19) ?v_116)) (or (or P38 ?v_36) ?v_98)) (or (or ?v_160 ?v_34) ?v_16)) (or (or ?v_194 ?v_106) ?v_62)) (or (or ?v_120 P17) ?v_42)) (or (or ?v_17 ?v_18) ?v_121)) (or (or ?v_19 P20) ?v_80)) (or (or ?v_20 ?v_57) P6)) (or (or ?v_21 ?v_41) ?v_23)) (or (or P31 P1) ?v_134)) (or (or ?v_16 ?v_153) ?v_37)) (or (or P7 ?v_33) P39)) (or (or ?v_46 ?v_155) ?v_157)) (or (or ?v_28 ?v_93) ?v_127)) (or (or ?v_148 ?v_30) ?v_45)) (or (or ?v_66 ?v_31) ?v_69)) (or (or ?v_32 ?v_125) ?v_33)) (or (or ?v_23 ?v_34) ?v_35)) (or (or P16 ?v_24) ?v_144)) (or (or ?v_30 P46) ?v_36)) (or (or P15 ?v_130) ?v_83)) (or (or ?v_111 ?v_96) ?v_37)) (or (or P17 P6) ?v_38)) (or (or ?v_14 P8) ?v_39)) (or (or ?v_164 ?v_40) ?v_99)) (or (or ?v_249 P17) ?v_84)) (or (or ?v_128 ?v_182) ?v_78)) (or (or P0 ?v_42) P16)) (or (or P31 ?v_221) ?v_48)) (or (or P16 ?v_44) P31)) (or (or ?v_45 ?v_92) ?v_226)) (or (or ?v_46 ?v_228) ?v_47)) (or (or ?v_50 ?v_48) ?v_49)) (or (or ?v_50 ?v_61) ?v_52)) (or (or ?v_53 ?v_20) P11)) (or (or ?v_112 ?v_55) ?v_56)) (or (or ?v_97 ?v_10) ?v_57)) (or (or ?v_24 P4) ?v_58)) (or (or ?v_82 ?v_59) ?v_60)) (or (or ?v_61 ?v_62) ?v_91)) (or (or ?v_63 ?v_64) ?v_65)) (or (or P49 ?v_210) ?v_89)) (or (or ?v_60 ?v_66) ?v_67)) (or (or ?v_68 ?v_69) ?v_70)) (or (or ?v_88 ?v_53) ?v_71)) (or (or ?v_72 ?v_246) ?v_73)) (or (or ?v_79 ?v_8) ?v_6)) (or (or ?v_74 ?v_75) ?v_76)) (or (or ?v_77 ?v_78) ?v_20)) (or (or ?v_67 ?v_87) P3)) (or (or ?v_79 ?v_80) ?v_81)) (or (or P16 ?v_82) ?v_115)) (or (or ?v_46 ?v_83) ?v_131)) (or (or ?v_178 ?v_84) ?v_85)) (or (or ?v_86 ?v_87) ?v_47)) (or (or ?v_88 P15) ?v_89)) (or (or ?v_32 ?v_55) ?v_40)) (or (or ?v_64 ?v_90) P12)) (or (or ?v_82 ?v_102) P35)) (or (or ?v_91 ?v_92) P39)) (or (or ?v_93 ?v_94) ?v_68)) (or (or ?v_119 ?v_250) ?v_49)) (or (or P3 ?v_67) ?v_95)) (or (or ?v_93 ?v_35) ?v_96)) (or (or ?v_97 ?v_41) ?v_63)) (or (or ?v_214 ?v_90) ?v_198)) (or (or ?v_203 ?v_98) ?v_99)) (or (or ?v_81 ?v_100) ?v_159)) (or (or ?v_35 ?v_237) ?v_14)) (or (or ?v_163 ?v_103) ?v_104)) (or (or ?v_105 ?v_106) ?v_129)) (or (or ?v_140 P6) ?v_108)) (or (or ?v_109 ?v_110) ?v_50)) (or (or ?v_63 ?v_111) ?v_112)) (or (or ?v_113 ?v_17) ?v_114)) (or (or ?v_76 ?v_115) ?v_123)) (or (or ?v_83 ?v_49) ?v_142)) (or (or ?v_199 ?v_92) ?v_44)) (or (or ?v_81 ?v_147) ?v_116)) (or (or ?v_117 ?v_248) ?v_119)) (or (or ?v_120 ?v_46) ?v_121)) (or (or ?v_201 ?v_122) ?v_123)) (or (or P28 ?v_113) ?v_61)) (or (or ?v_65 ?v_124) ?v_125)) (or (or ?v_78 P13) ?v_126)) (or (or ?v_127 ?v_128) ?v_129)) (or (or ?v_130 ?v_35) ?v_131)) (or (or ?v_132 ?v_133) ?v_71)) (or (or P29 ?v_82) ?v_5)) (or (or P38 ?v_134) ?v_253)) (or (or P15 ?v_94) ?v_116)) (or (or P23 P21) P40)) (or (or ?v_135 P19) ?v_136)) (or (or ?v_137 ?v_145) ?v_30)) (or (or ?v_7 ?v_102) ?v_129)) (or (or P27 ?v_116) ?v_95)) (or (or ?v_138 (not ?v_46)) ?v_18)) (or (or ?v_79 ?v_224) ?v_47)) (or (or ?v_117 ?v_47) ?v_257)) (or (or ?v_94 P26) ?v_88)) (or (or P18 ?v_60) ?v_110)) (or (or ?v_111 ?v_181) ?v_240)) (or (or P36 ?v_121) ?v_53)) (or (or ?v_17 ?v_100) ?v_139)) (or (or ?v_242 P9) ?v_140)) (or (or ?v_141 ?v_127) ?v_216)) (or (or ?v_142 ?v_143) ?v_144)) (or (or ?v_88 P41) ?v_149)) (or (or ?v_11 P26) ?v_82)) (or (or ?v_120 ?v_79) ?v_123)) (or (or ?v_88 ?v_121) ?v_146)) (or (or ?v_145 ?v_18) ?v_113)) (or (or ?v_146 ?v_117) ?v_121)) (or (or ?v_69 ?v_147) ?v_148)) (or (or P8 ?v_20) ?v_136)) (or (or ?v_72 ?v_149) ?v_44)) (or (or ?v_154 ?v_238) ?v_150)) (or (or ?v_58 P5) ?v_134)) (or (or ?v_57 ?v_166) ?v_151)) (or (or ?v_130 ?v_152) ?v_85)) (or (or P49 ?v_54) ?v_207)) (or (or ?v_152 ?v_2) ?v_154)) (or (or ?v_155 ?v_62) ?v_100)) (or (or ?v_156 ?v_9) ?v_243)) (or (or ?v_158 ?v_110) ?v_259)) (or (or P42 P45) P39)) (or (or P10 ?v_170) ?v_254)) (or (or ?v_33 ?v_144) ?v_160)) (or (or ?v_100 ?v_137) ?v_204)) (or (or ?v_79 ?v_244) P44)) (or (or ?v_73 ?v_149) ?v_62)) (or (or P31 ?v_18) ?v_53)) (or (or ?v_162 ?v_163) P48)) (or (or ?v_33 ?v_59) ?v_164)) (or (or ?v_94 ?v_165) ?v_166)) (or (or ?v_2 ?v_28) ?v_159)) (or (or P18 ?v_34) P6)) (or (or ?v_197 P6) ?v_49)) (or (or P12 P33) P18)) (or (or P4 ?v_161) P21)) (or (or ?v_28 ?v_196) P20)) (or (or ?v_83 ?v_235) ?v_189)) (or (or ?v_85 ?v_208) ?v_76)) (or (or ?v_69 ?v_28) ?v_169)) (or (or ?v_78 ?v_170) P25)) (or (or P13 ?v_171) ?v_172)) (or (or ?v_173 ?v_174) P36)) (or (or ?v_133 P19) ?v_213)) (or (or ?v_52 ?v_96) ?v_115)) (or (or ?v_126 ?v_175) P18)) (or (or P46 ?v_176) ?v_177)) (or (or ?v_82 P38) ?v_178)) (or (or ?v_69 ?v_23) ?v_120)) (or (or ?v_185 ?v_30) ?v_179)) (or (or P41 P17) P10)) (or (or ?v_175 P7) ?v_220)) (or (or ?v_180 ?v_77) ?v_106)) (or (or ?v_45 ?v_187) ?v_73)) (or (or ?v_124 ?v_223) ?v_193)) (or (or ?v_92 ?v_96) ?v_181)) (or (or ?v_155 ?v_61) ?v_182)) (or (or ?v_32 ?v_183) ?v_184)) (or (or ?v_69 ?v_75) ?v_138)) (or (or ?v_185 ?v_56) ?v_147)) (or (or ?v_15 ?v_9) ?v_186)) (or (or P16 ?v_19) ?v_187)) (or (or ?v_111 ?v_115) P7)) (or (or ?v_60 ?v_188) P36)) (or (or ?v_114 ?v_145) ?v_24)) (or (or P38 ?v_189) ?v_134)) (or (or ?v_171 ?v_35) ?v_117)) (or (or P37 P49) ?v_33)) (or (or ?v_117 P10) ?v_30)) (or (or ?v_190 ?v_135) ?v_212)) (or (or ?v_112 ?v_108) ?v_105)) (or (or ?v_50 ?v_245) ?v_113)) (or (or ?v_154 ?v_1) P33)) (or (or ?v_96 ?v_164) ?v_131)) (or (or ?v_191 ?v_188) ?v_79)) (or (or P4 ?v_233) ?v_124)) (or (or ?v_236 ?v_202) ?v_114)) (or (or ?v_192 ?v_19) ?v_135)) (or (or ?v_193 P25) ?v_194)) (or (or ?v_115 ?v_7) ?v_241)) (or (or ?v_188 P1) ?v_6)) (or (or ?v_5 ?v_52) ?v_45)) (or (or P45 P9) ?v_144)) (or (or ?v_50 P47) ?v_46)) (or (or ?v_195 ?v_19) ?v_142)) (or (or ?v_117 ?v_104) ?v_196)) (or (or ?v_185 ?v_197) ?v_46)) (or (or ?v_198 ?v_172) ?v_230)) (or (or ?v_55 P2) ?v_128)) (or (or ?v_54 ?v_200) ?v_201)) (or (or ?v_128 ?v_50) ?v_82)) (or (or ?v_202 P21) P35)) (or (or ?v_61 ?v_225) ?v_38)) (or (or ?v_67 ?v_127) ?v_203)) (or (or ?v_204 P7) ?v_205)) (or (or P13 ?v_151) P24)) (or ?v_231 ?v_30)) (or (or ?v_6 ?v_66) ?v_40)) (or (or ?v_227 ?v_207) ?v_92)) (or (or ?v_208 ?v_36) ?v_195)) (or (or ?v_209 P17) ?v_82)) (or (or P36 ?v_31) ?v_210)) (or (or ?v_211 ?v_190) ?v_111)) (or (or ?v_177 ?v_212) ?v_108)) (or (or ?v_213 ?v_118) ?v_120)) (or (or ?v_239 ?v_214) ?v_215)) (or (or ?v_206 P26) ?v_23)) (or (or ?v_189 ?v_45) ?v_216)) (or (or ?v_79 ?v_218) ?v_135)) (or (or ?v_217 ?v_75) ?v_125)) (or (or ?v_105 P19) ?v_53)) (or (or ?v_218 ?v_31) ?v_142)) (or (or ?v_134 ?v_89) ?v_90)) (or (or P2 ?v_114) P36)) (or (or ?v_92 ?v_190) ?v_41)) (or (or P16 ?v_63) ?v_175)) (or (or P44 ?v_45) ?v_148)) (or (or P10 P1) ?v_85)) (or (or ?v_219 ?v_186) ?v_58)) (or (or ?v_48 ?v_208) ?v_21)) (or (or P48 ?v_13) ?v_220)) (or (or ?v_169 ?v_1) P9)) (or (or P49 ?v_3) ?v_221)) (or (or ?v_114 ?v_15) ?v_163)) (or (or ?v_190 P4) ?v_124)) (or (or ?v_221 P27) P15)) (or (or ?v_197 ?v_190) ?v_80)) (or (or ?v_58 P49) ?v_194)) (or (or P16 ?v_53) ?v_222)) (or (or ?v_83 ?v_173) ?v_223)) (or (or ?v_224 ?v_28) ?v_225)) (or (or ?v_49 ?v_62) ?v_11)) (or (or ?v_226 ?v_71) ?v_146)) (or (or ?v_150 P7) ?v_219)) (or (or ?v_227 ?v_213) ?v_55)) (or (or ?v_110 ?v_210) ?v_148)) (or (or ?v_124 ?v_228) ?v_54)) (or (or ?v_203 ?v_111) P10)) (or (or P35 ?v_176) ?v_108)) (or (or ?v_142 ?v_88) ?v_203)) (or (or ?v_161 ?v_162) P45)) (or (or P1 ?v_94) ?v_201)) (or (or ?v_188 ?v_58) ?v_181)) (or (or P6 ?v_179) ?v_98)) (or (or ?v_229 P29) ?v_200)) (or (or ?v_6 ?v_230) ?v_67)) (or ?v_231 ?v_45)) (or (or P23 ?v_232) ?v_217)) (or (or ?v_195 ?v_67) ?v_113)) (or (or P43 ?v_233) ?v_142)) (or (or P47 ?v_166) ?v_234)) (or (or P19 ?v_188) P44)) (or (or ?v_226 ?v_111) ?v_89)) (or (or ?v_163 P2) ?v_223)) (or (or ?v_103 ?v_108) ?v_9)) (or (or ?v_112 ?v_156) ?v_7)) (or (or ?v_208 ?v_16) ?v_235)) (or (or ?v_13 ?v_133) P33)) (or (or ?v_5 ?v_234) ?v_141)) (or (or ?v_74 ?v_36) ?v_69)) (or (or ?v_227 ?v_164) ?v_31)) (or (or P45 ?v_47) ?v_150)) (or (or ?v_30 ?v_16) P32)) (or (or ?v_236 ?v_237) ?v_209)) (or (or ?v_115 ?v_213) ?v_141)) (or (or ?v_119 ?v_41) ?v_97)) (or (or ?v_95 ?v_129) P13)) (or (or ?v_238 ?v_13) ?v_44)) (or (or ?v_202 ?v_247) ?v_31)) (or (or ?v_31 ?v_173) ?v_239)) (or (or ?v_88 ?v_106) ?v_28)) (or (or ?v_28 ?v_171) P13)) (or (or ?v_10 ?v_97) ?v_84)) (or (or P10 ?v_92) ?v_191)) (or (or ?v_194 ?v_70) ?v_240)) (or (or P47 ?v_48) P41)) (or (or ?v_94 ?v_183) ?v_97)) (or (or ?v_31 ?v_122) P35)) (or (or ?v_151 ?v_207) ?v_31)) (or (or ?v_110 ?v_160) ?v_63)) (or (or ?v_241 ?v_85) ?v_190)) (or (or ?v_111 ?v_116) P18)) (or (or P33 ?v_162) ?v_186)) (or (or ?v_215 P49) ?v_15)) (or (or ?v_50 ?v_66) ?v_95)) (or (or ?v_205 ?v_110) ?v_242)) (or (or ?v_36 P18) ?v_16)) (or (or ?v_62 ?v_21) ?v_60)) (or (or ?v_59 ?v_106) ?v_151)) (or (or ?v_114 ?v_64) ?v_162)) (or (or ?v_65 ?v_145) ?v_243)) (or (or P15 ?v_124) ?v_105)) (or (or ?v_93 ?v_244) ?v_23)) (or (or ?v_157 ?v_141) ?v_102)) (or (or ?v_210 ?v_108) ?v_91)) (or (or P35 ?v_129) ?v_174)) (or (or ?v_8 ?v_105) ?v_245)) (or (or ?v_184 ?v_94) ?v_14)) (or (or ?v_240 ?v_122) ?v_33)) (or (or ?v_204 ?v_97) ?v_86)) (or (or P23 ?v_80) ?v_121)) (or (or ?v_204 ?v_230) P11)) (or (or ?v_227 ?v_60) ?v_246)) (or (or ?v_154 P18) ?v_135)) (or (or P43 ?v_195) ?v_67)) (or (or ?v_36 ?v_66) P42)) (or (or ?v_20 ?v_127) ?v_165)) (or (or P36 ?v_63) ?v_166)) (or (or ?v_237 ?v_35) ?v_240)) (or (or ?v_84 ?v_5) ?v_201)) (or (or P47 ?v_224) ?v_13)) (or (or ?v_63 ?v_122) ?v_90)) (or (or ?v_196 ?v_77) ?v_247)) (or (or ?v_65 ?v_19) ?v_90)) (or (or P24 ?v_195) ?v_237)) (or (or P6 ?v_135) ?v_248)) (or (or ?v_153 ?v_114) P19)) (or (or ?v_49 ?v_213) ?v_39)) (or (or ?v_121 P49) ?v_90)) (or (or ?v_2 ?v_85) ?v_189)) (or (or ?v_232 ?v_154) ?v_119)) (or (or ?v_178 ?v_81) ?v_105)) (or (or P7 P40) ?v_31)) (or (or ?v_99 ?v_210) ?v_249)) (or (or ?v_184 ?v_49) ?v_47)) (or (or ?v_180 ?v_221) ?v_28)) (or (or P6 ?v_105) ?v_69)) (or (or ?v_160 P16) P24)) (or (or ?v_142 P38) ?v_100)) (or (or ?v_87 ?v_48) P19)) (or (or P32 ?v_77) P49)) (or (or ?v_250 ?v_171) ?v_246)) (or (or ?v_133 ?v_137) P42)) (or (or ?v_201 ?v_60) ?v_161)) (or (or ?v_159 ?v_226) P19)) (or (or P39 ?v_8) ?v_251)) (or (or ?v_184 ?v_130) ?v_28)) (or (or ?v_104 ?v_159) ?v_115)) (or (or ?v_171 ?v_193) ?v_15)) (or (or ?v_56 ?v_169) P7)) (or (or ?v_138 P3) ?v_220)) (or (or ?v_189 ?v_242) P49)) (or (or ?v_121 ?v_108) P11)) (or (or ?v_72 ?v_185) ?v_252)) (or (or P10 ?v_194) ?v_214)) (or (or ?v_147 ?v_94) ?v_114)) (or (or ?v_245 ?v_106) P14)) (or (or ?v_76 ?v_152) ?v_186)) (or (or ?v_216 ?v_52) ?v_246)) (or (or ?v_247 P12) ?v_253)) (or (or ?v_248 ?v_103) ?v_166)) (or (or ?v_202 ?v_42) P21)) (or (or ?v_203 ?v_114) ?v_86)) (or (or P39 P20) ?v_86)) (or (or ?v_158 ?v_5) ?v_232)) (or (or ?v_92 ?v_133) ?v_254)) (or (or ?v_116 ?v_64) ?v_63)) (or (or ?v_65 ?v_164) ?v_237)) (or (or ?v_103 ?v_245) ?v_48)) (or (or ?v_34 ?v_177) ?v_69)) (or (or ?v_70 ?v_64) ?v_255)) (or (or ?v_115 ?v_176) ?v_255)) (or (or ?v_207 ?v_15) ?v_256)) (or (or ?v_68 ?v_86) ?v_239)) (or (or ?v_186 P9) ?v_249)) (or (or ?v_128 ?v_34) ?v_229)) (or (or ?v_74 ?v_44) ?v_241)) (or (or ?v_3 ?v_204) ?v_122)) (or (or ?v_18 ?v_41) ?v_73)) (or (or ?v_95 ?v_228) P16)) (or (or ?v_209 ?v_91) ?v_31)) (or (or ?v_192 ?v_158) ?v_144)) (or (or ?v_45 ?v_89) ?v_258)) (or (or ?v_70 ?v_70) ?v_130)) (or (or ?v_192 P48) P14)) (or (or ?v_95 ?v_229) P19)) (or (or ?v_142 ?v_44) ?v_175)) (or (or ?v_190 ?v_19) P22)) (or (or P37 ?v_209) P29)) (or (or ?v_76 P21) P11)) (or (or ?v_148 ?v_208) ?v_188)) (or (or ?v_52 P33) ?v_215)) (or (or ?v_15 ?v_175) ?v_54)) (or (or ?v_47 ?v_256) ?v_173)) (or (or ?v_251 ?v_212) ?v_122)) (or (or ?v_138 P36) ?v_119)) (or (or ?v_193 ?v_10) ?v_122)) (or (or ?v_59 ?v_53) ?v_88)) (or (or P11 ?v_172) P21)) (or (or P18 ?v_193) ?v_65)) (or (or ?v_218 ?v_137) ?v_52)) (or (or ?v_255 ?v_7) ?v_57)) (or (or ?v_215 ?v_86) ?v_176)) (or (or ?v_34 ?v_44) ?v_149)) (or (or ?v_222 ?v_186) ?v_225)) (or (or ?v_198 P18) ?v_255)) (or (or ?v_240 ?v_182) ?v_79)) (or (or ?v_141 ?v_93) P21)) (or (or ?v_19 ?v_151) ?v_261)) (or (or ?v_106 ?v_134) ?v_103)) (or (or P33 ?v_206) ?v_93)) (or (or ?v_78 ?v_257) ?v_210)) (or (or ?v_21 ?v_136) ?v_45)) (or (or ?v_70 ?v_210) P16)) (or (or ?v_137 ?v_79) ?v_105)) (or (or ?v_77 P1) ?v_208)) (or (or ?v_140 ?v_219) ?v_155)) (or (or ?v_185 P9) ?v_256)) (or (or P10 ?v_256) ?v_138)) (or (or ?v_166 ?v_118) ?v_228)) (or (or ?v_173 ?v_30) ?v_7)) (or (or P31 ?v_71) ?v_258)) (or (or ?v_223 ?v_132) ?v_121)) (or (or ?v_181 P19) ?v_117)) (or (or ?v_21 ?v_179) ?v_87)) (or (or ?v_233 ?v_5) ?v_124)) (or (or ?v_160 ?v_223) ?v_221)) (or (or ?v_120 ?v_253) ?v_54)) (or (or ?v_50 ?v_152) ?v_47)) (or (or ?v_189 ?v_244) ?v_213)) (or (or ?v_214 ?v_3) ?v_224)) (or (or ?v_234 ?v_82) ?v_175)) (or (or ?v_238 ?v_61) ?v_186)) (or (or ?v_191 ?v_158) ?v_73)) (or (or ?v_85 ?v_31) ?v_114)) (or (or ?v_214 ?v_165) ?v_127)) (or (or ?v_132 ?v_166) P26)) (or (or ?v_130 P25) ?v_116)) (or (or ?v_250 ?v_178) ?v_150)) (or (or ?v_64 P18) P20)) (or (or ?v_190 P21) ?v_78)) (or (or ?v_104 ?v_240) ?v_31)) (or (or ?v_224 P13) ?v_67)) (or (or P15 ?v_30) ?v_119)) (or (or ?v_181 ?v_208) ?v_1)) (or (or ?v_209 ?v_247) ?v_45)) (or (or ?v_24 ?v_199) ?v_124)) (or (or ?v_62 P24) ?v_208)) (or (or ?v_2 ?v_228) ?v_254)) (or (or P20 P38) ?v_226)) (or (or ?v_70 P22) ?v_9)) (or (or ?v_37 ?v_87) ?v_191)) (or (or P23 ?v_236) ?v_57)) (or (or P42 ?v_120) P44)) (or (or ?v_242 ?v_39) ?v_202)) (or (or ?v_176 ?v_161) (not P19))) (or (or ?v_117 ?v_45) ?v_227)) (or (or ?v_193 ?v_131) ?v_76)) (or (or ?v_198 ?v_90) ?v_33)) (or (or ?v_215 ?v_241) P14)) (or (or ?v_102 ?v_50) ?v_192)) (or (or ?v_235 ?v_201) ?v_38)) (or (or ?v_60 ?v_50) ?v_256)) (or (or ?v_249 ?v_244) P9)) (or (or ?v_105 ?v_30) ?v_99)) (or (or ?v_124 ?v_199) ?v_158)) (or (or ?v_14 ?v_66) P17)) (or (or ?v_184 ?v_11) ?v_71)) (or (or ?v_246 ?v_218) ?v_169)) (or (or ?v_199 ?v_185) P35)) (or (or ?v_45 ?v_193) ?v_73)) (or (or P1 ?v_136) P43)) (or (or ?v_127 P39) ?v_227)) (or (or ?v_100 ?v_23) ?v_192)) (or (or ?v_96 ?v_11) ?v_187)) (or (or ?v_57 ?v_41) ?v_194)) (or (or ?v_84 ?v_173) ?v_63)) (or (or ?v_15 ?v_257) ?v_53)) (or (or ?v_176 ?v_76) P31)) (or (or ?v_90 ?v_113) ?v_134)) (or (or ?v_239 ?v_121) P48)) (or (or ?v_252 P37) ?v_6)) (or (or ?v_259 ?v_170) ?v_89)) (or (or ?v_240 (not ?v_21)) ?v_182)) (or (or P24 ?v_91) ?v_9)) (or (or ?v_119 ?v_35) ?v_10)) (or (or ?v_14 ?v_228) ?v_79)) (or (or ?v_205 ?v_186) P26)) (or (or ?v_1 ?v_201) ?v_115)) (or (or ?v_76 ?v_3) ?v_255)) (or (or ?v_256 ?v_46) ?v_152)) (or (or ?v_10 ?v_195) P1)) (or (or ?v_260 ?v_191) ?v_18)) (or (or ?v_202 ?v_124) ?v_158)) (or (or ?v_163 ?v_251) ?v_5)) (or (or P19 ?v_36) ?v_155)) (or (or P21 P29) P15)) (or (or ?v_153 P34) P16)) (or (or ?v_11 ?v_20) P34)) (or (or ?v_33 ?v_41) P42)) (or (or ?v_100 ?v_133) P13)) (or (or ?v_233 ?v_35) ?v_188)) (or (or ?v_80 ?v_236) ?v_215)) (or (or ?v_17 ?v_227) ?v_258)) (or (or ?v_227 ?v_118) ?v_245)) (or (or ?v_136 ?v_154) ?v_60)) (or (or ?v_249 ?v_3) P30)) (or (or ?v_246 ?v_70) ?v_83)) (or (or ?v_65 ?v_63) ?v_14)) (or (or ?v_243 ?v_39) ?v_129)) (or (or P2 ?v_56) ?v_197)) (or (or ?v_136 ?v_24) ?v_195)) (or (or ?v_127 ?v_134) ?v_19)) (or (or ?v_95 P1) ?v_221)) (or (or ?v_183 ?v_202) ?v_215)) (or (or ?v_135 P4) ?v_199)) (or (or ?v_179 ?v_223) ?v_24)) (or (or ?v_100 ?v_28) P18)) (or (or ?v_115 ?v_225) ?v_186)) (or (or ?v_147 ?v_116) ?v_254)) (or (or P7 ?v_68) ?v_154)) (or (or P24 ?v_2) ?v_108)) (or (or P46 ?v_200) ?v_128)) (or (or ?v_68 ?v_185) ?v_260)) (or (or ?v_48 ?v_7) ?v_185)) (or (or P17 ?v_102) ?v_166)) (or (or ?v_90 ?v_34) ?v_245)) (or (or ?v_71 P43) P16)) (or (or ?v_149 ?v_125) P23)) (or (or ?v_64 ?v_85) ?v_70)) (or (or ?v_226 ?v_177) ?v_174)) (or (or ?v_32 ?v_246) ?v_238)) (or (or P20 ?v_34) ?v_162)) (or (or P33 ?v_66) ?v_125)) (or (or ?v_61 ?v_21) ?v_215)) (or (or P27 ?v_170) ?v_261)) (or (or ?v_248 ?v_156) ?v_24)) (or (or ?v_60 P32) ?v_240)) (or (or ?v_135 ?v_109) ?v_100)) (or (or ?v_7 ?v_74) ?v_191)) (or (or ?v_214 ?v_54) ?v_221)) (or (or P0 P36) ?v_109)) (or (or P43 ?v_207) ?v_254)) (or (or ?v_249 ?v_246) ?v_54)) (or (or ?v_66 P34) ?v_145)) (or (or ?v_137 ?v_244) ?v_243)) (or (or ?v_35 ?v_246) ?v_62)) (or (or ?v_76 P37) ?v_6)) (or (or P48 ?v_179) P27)) (or (or ?v_250 P15) ?v_249)) (or (or ?v_172 ?v_32) ?v_233)) (or (or ?v_40 ?v_170) ?v_93)) (or (or ?v_21 ?v_42) ?v_165)) (or (or ?v_125 ?v_108) ?v_36)) (or (or ?v_143 ?v_6) P13)) (or (or P43 ?v_7) ?v_111)) (or (or ?v_95 ?v_16) ?v_132)) (or (or P27 ?v_202) ?v_242)) (or (or P29 ?v_73) ?v_86)) (or (or ?v_30 ?v_15) ?v_165)) (or (or ?v_116 P30) ?v_80)) (or (or ?v_212 ?v_180) ?v_97)) (or (or P12 ?v_195) ?v_1)) (or (or ?v_233 ?v_57) ?v_212)) (or (or ?v_242 ?v_261) ?v_98)) (or (or ?v_52 ?v_145) ?v_111)) (or (or P43 ?v_98) ?v_240)) (or (or ?v_23 P21) P14)) (or (or ?v_77 ?v_215) ?v_57)) (or (or ?v_139 ?v_145) ?v_48)) (or (or ?v_239 ?v_149) ?v_63)) (or (or ?v_150 ?v_9) P39)) (or (or ?v_79 ?v_243) ?v_63)) (or (or ?v_114 ?v_37) ?v_197)) (or (or ?v_24 ?v_249) ?v_236)) (or (or ?v_2 ?v_233) ?v_100)) (or (or ?v_179 ?v_163) ?v_133)) (or (or ?v_152 P8) ?v_63)) (or (or ?v_233 ?v_87) ?v_30))))))))))))))))))))))))))))))))))))))))))
(check-sat)
(exit)
